Traveling Salesman Problem/TSP_generados/Aleatorio1621103444_14.tsp
NAME: Aleatorio1621103444_14.tsp
COMMENT: Randomly generated scenario
TYPE: TSP
DIMENSION: 14
EDGE_WEIGHT_TYPE: ATT
NODE_COORD_SECTION
1 37.06 27.82
2 26.85 3.87
3 40.65 19.42
4 5.83 13.5
5 31.18 19.58
6 1.24 29.4
7 49.2 13.52
8 24.85 7.69
9 39.38 13.41
10 25.21 38.5
11 27.9 9.82
12 49.51 42.17
13 25.12 25.96
14 8.65 0.26
