Traveling Salesman Problem/TSP_generados/Aleatorio1621103444_14.opt.tour
NAME: Aleatorio1621103444_14.opt.tour
COMMENT: Optimal solution for Aleatorio1621103444_14 (186.81539239307858)
TYPE: TOUR
DIMENSION: 14
TOUR_SECTION
1 3 7 9 5 11 8 2 14 4 6 13 10 12
-1
EOF
